N = 47;
MinK = 7;
Capacity = 100;

X = array1d(0..47, [47, 1, 97, 23, 77, 3, 5, 41, 51, 67, 89, 71, 11, 85, 57, 57, 71, 61, 39, 13, 43, 87, 11, 21, 77, 3, 47, 53, 73, 81, 89, 11, 27, 95, 63, 37, 33, 23, 13, 47, 45, 83, 69, 13, 37, 53, 97, 75]);
Y = array1d(0..47, [5, 19, 35, 79, 87, 9, 27, 53, 87, 73, 45, 99, 1, 85, 11, 85, 33, 13, 15, 59, 99, 73, 37, 11, 81, 63, 95, 75, 55, 71, 75, 9, 37, 59, 63, 21, 47, 63, 55, 93, 43, 7, 91, 11, 15, 59, 83, 31]);

Demands = [20, 14, 5, 11, 22, 25, 2, 18, 10, 26, 14, 22, 9, 11, 18, 24, 15, 23, 16, 14, 8, 5, 12, 8, 16, 12, 15, 9, 2, 10, 2, 3, 20, 3, 13, 25, 23, 8, 16, 9, 14, 4, 13, 7, 16, 18, 16];
